6 40 4 10
1 3 10 8 7 6 4 9 6 11 11 3 1 7 3 18 15 10 20 6 11 15 9 9 15 15 19 9 19 1 13 15 10 7 2 11 8 7 20 17 
4.24 5.31 5.61 4.67 1.94 3.76 0.11 6.57 5.86 0.37 0.82 5.42 4.22 5.69 6.46 0.31 5.75 1.93 7.65 6.35 1.11 1.78 7.97 1.99 7.24 4.42 3.29 2.49 2.3 5.08 3.62 0.55 5.13 4.48 6.58 3.72 3.8 5.68 2.72 1.42 
1.84 7.35 4.82 6.85 7.16 1.77 5.32 0.47 4.22 2.56 6.72 4.39 5.87 7.37 5.18 2.54 1.04 1.42 2.05 4.28 7.37 1.43 5.92 6.74 1.69 3.84 6.79 7.85 1.03 6.36 2.19 4.04 7.37 3.15 1.07 1.69 0.57 0.23 1.8 1.86 
0.9 5.5 2.93 0.65 3.62 3.2 2.29 5.91 2.24 7.5 5.63 2.65 7.87 0.67 6.73 7.82 3.05 1.99 5.25 4.75 3.73 0.26 4.12 7.62 5.11 2.21 4.94 6.22 2.27 2.18 5.87 0.99 2.73 6.08 4.7 5.69 0.61 1.89 7.65 4.59 
3.48 2.9 5.75 4.87 3.69 6.98 1.93 6.87 3.64 1.01 2.46 6.16 0.07 6.45 7.74 5.83 2.69 3.93 0.49 0.42 2.58 2.88 4.4 6.67 2.44 5.92 3.63 2.87 2.38 5.6 6.51 5.08 4.76 7.46 5.12 6.83 3.46 1.7 2.14 6.01 
4 4 4 4 4 4 4 4 4 4 4 4 4 4 4 4 4 4 4 4 4 4 4 4 4 4 4 4 4 4 4 4 4 4 4 4 4 4 4 4 
0.01 3.35 7.17 7.17 1.57 6.67 3.86 3.77 4.39 7.42 5.94 7.01 6.64 7.37 7.22 6.53 7.64 0.44 0.15 3.18 3.83 7.55 3.28 1.9 1.48 5.2 1.27 2.73 3.75 5.78 5.17 6.64 7.88 5.79 2.4 6.49 4.01 6.83 1.25 6.83 
1 1 1 1 1 1 1 1 1 1 1 1 1 1 1 1 1 1 1 1 1 1 1 1 1 1 1 1 1 1 1 1 1 1 1 1 1 1 1 1 
1 1 1 1 1 1 1 1 1 1 1 1 1 1 1 1 1 1 1 1 1 1 1 1 1 1 1 1 1 1 1 1 1 1 1 1 1 1 1 1 
1 1 1 1 1 1 1 1 1 1 1 1 1 1 1 1 1 1 1 1 1 1 1 1 1 1 1 1 1 1 1 1 1 1 1 1 1 1 1 1 
1 1 1 1 1 1 1 1 1 1 1 1 1 1 1 1 1 1 1 1 1 1 1 1 1 1 1 1 1 1 1 1 1 1 1 1 1 1 1 1 
1 1 1 1 1 1 1 1 1 1 1 1 1 1 1 1 1 1 1 1 1 1 1 1 1 1 1 1 1 1 1 1 1 1 1 1 1 1 1 1 
1 1 1 1 1 1 1 1 1 1 1 1 1 1 1 1 1 1 1 1 1 1 1 1 1 1 1 1 1 1 1 1 1 1 1 1 1 1 1 1 
0.01 0.01 0.01 0.01 0.01 0.01 0.01 0.01 0.01 0.01 0.01 0.01 0.01 0.01 0.01 0.01 0.01 0.01 0.01 0.01 0.01 0.01 0.01 0.01 0.01 0.01 0.01 0.01 0.01 0.01 0.01 0.01 0.01 0.01 0.01 0.01 0.01 0.01 0.01 0.01 
0.02 0.02 0.02 0.02 0.02 0.02 0.02 0.02 0.02 0.02 0.02 0.02 0.02 0.02 0.02 0.02 0.02 0.02 0.02 0.02 0.02 0.02 0.02 0.02 0.02 0.02 0.02 0.02 0.02 0.02 0.02 0.02 0.02 0.02 0.02 0.02 0.02 0.02 0.02 0.02 
0.03 0.03 0.03 0.03 0.03 0.03 0.03 0.03 0.03 0.03 0.03 0.03 0.03 0.03 0.03 0.03 0.03 0.03 0.03 0.03 0.03 0.03 0.03 0.03 0.03 0.03 0.03 0.03 0.03 0.03 0.03 0.03 0.03 0.03 0.03 0.03 0.03 0.03 0.03 0.03 
0.04 0.04 0.04 0.04 0.04 0.04 0.04 0.04 0.04 0.04 0.04 0.04 0.04 0.04 0.04 0.04 0.04 0.04 0.04 0.04 0.04 0.04 0.04 0.04 0.04 0.04 0.04 0.04 0.04 0.04 0.04 0.04 0.04 0.04 0.04 0.04 0.04 0.04 0.04 0.04 
0.05 0.05 0.05 0.05 0.05 0.05 0.05 0.05 0.05 0.05 0.05 0.05 0.05 0.05 0.05 0.05 0.05 0.05 0.05 0.05 0.05 0.05 0.05 0.05 0.05 0.05 0.05 0.05 0.05 0.05 0.05 0.05 0.05 0.05 0.05 0.05 0.05 0.05 0.05 0.05 
1 1 1 1 1 1 1 1 1 1 1 1 1 1 1 1 1 1 1 1 1 1 1 1 1 1 1 1 1 1 1 1 1 1 1 1 1 1 1 1 
